p td 22 126
3 2
4 3
5 1
5 2
6 1
6 2
7 2
7 6
7 4
7 5
8 7
8 5
8 3
8 2
8 1
9 8
9 7
9 2
9 4
9 3
9 1
9 6
10 7
10 4
10 6
10 1
10 9
10 3
11 9
11 6
11 1
11 2
12 10
12 8
12 6
12 7
12 9
12 5
12 2
12 3
12 1
12 4
13 11
13 9
13 6
13 3
13 5
14 11
14 10
14 1
14 7
14 12
14 2
15 10
15 13
15 8
15 2
15 12
15 6
16 5
16 2
16 15
16 14
16 7
16 8
16 9
16 11
17 3
17 1
17 14
17 9
17 11
17 15
17 13
17 4
18 8
18 1
18 10
19 2
19 18
19 17
19 4
19 9
19 1
19 14
19 7
19 5
19 8
19 16
19 10
19 11
20 6
20 10
20 8
20 3
20 16
20 18
20 19
20 15
20 2
20 4
20 17
20 1
20 13
20 11
20 9
21 11
21 7
21 5
21 14
21 10
21 6
21 9
21 4
21 17
21 8
21 3
22 10
22 13
22 12
22 8
22 21
22 9
22 16
22 6
22 19
